38 38
6 38
1 5
19 33
9 16
4 12
19 35
1 28
3 9
5 6
17 20
13 10
16 23
16 37
9 4
18 13
18 24
12 22
12 11
4 26
14 30
14 15
17 18
15 31
13 32
2 2
10 14
7 25
7 19
2 27
10 36
8 21
8 8
15 29
11 1
5 34
11 7
3 3
6 17
